
  22   10
  10   10   10   10   10   10   10   10   10   10

   0   0   0   0   0   0   0   0   0   0   0   3 2 4 5 
   7   0   0   0   0   0   0   0  10   0   0   3 15 10 3 
   6   0   0   0  10   0   0   0   0   0   0   2 16 6 
   3   0   0   0   0   0   0   0  10   0   0   4 15 11 10 8 
  10   0   0   0   0   0   0   0   0  10   0   4 15 11 10 8 
   5   0   0   0   0  10   0   0   0   0   0   2 11 7 
   9   0   0   0  10   0   0   0   0   0   0   1 8 
   2   0  10   0   0   0   0   0   0   0   0   1 9 
   4   0   0   0   0   0   0   0   0   0  10   4 19 18 14 12 
   5  10   0   0   0   0   0   0   0   0   0   3 19 18 14 
   4   0   0   0   0   0   0   0   0  10   0   2 19 12 
   7   0   0  10   0   0   0   0   0   0   0   1 13 
   2   0   0   0   0   0   0   0  10   0   0   1 17 
   7   0   0   0   0  10   0   0   0   0   0   1 17 
   9   0   0  10   0   0   0   0   0   0   0   1 18 
   1   0  10   0   0   0   0   0   0   0   0   1 18 
  10   0   0   0   0  10   0   0   0   0   0   1 20 
   3   0   0   0   0   0  10   0   0   0   0   1 20 
  10  10   0   0   0   0   0   0   0   0   0   1 21 
   4   0   0   0   0  10   0   0   0   0   0   1 22
   1   0   0   0   0   0   0   0  10   0   0   1 22
   0   0   0   0   0   0   0   0   0   0   0   0 
